ilp_joint_2/output/chemosynthesis_ilp.lp
Maximize
 
Subject To
 constraint2_1070: <= 1
 constraint2_1071: <= 1
 constraint2_1072: <= 1
 constraint2_1073: <= 1
Bounds
End
