ilp_joint_2/output/chemosynthesis_ilp.mps
NAME chemosynthesis_srl_ilp
* Max problem is converted into Min one
ROWS
 N  OBJ
 L  constraint2_1070
 L  constraint2_1071
 L  constraint2_1072
 L  constraint2_1073
COLUMNS
RHS
    RHS1      constraint2_1070  1
    RHS1      constraint2_1071  1
    RHS1      constraint2_1072  1
    RHS1      constraint2_1073  1
BOUNDS
ENDATA
