ilp_joint_2/output/chemosynthesis_ilp.sol
# Solution for model chemosynthesis_srl_ilp
# Objective value = 0
